<number of tasks>
29

<cycle time>
33

<task times>
1 7
2 19
3 15
4 5
5 12
6 10
7 8
8 16
9 2
10 6
11 21
12 10
13 9
14 4
15 14
16 7
17 14
18 17
19 10
20 16
21 1
22 9
23 25
24 14
25 14
26 2
27 10
28 7
29 20

<precedence relations>
1,3
1,25
2,6
2,26
3,4
4,5
5,8
5,13
6,8
7,9
7,12
7,25
8,11
8,16
9,10
10,14
10,15
11,17
12,15
13,17
14,16
15,19
16,18
17,20
18,22
19,21
20,23
21,22
22,23
23,24
23,28
24,29
25,29
26,27
27,29
28,29

<setup times forward>
1,2:4
1,3:2
1,6:2
1,14:3
1,15:2
1,19:1
1,21:4
1,25:4
1,26:2
1,27:2
2,1:4
2,3:6
2,4:6
2,5:6
2,6:2
2,7:4
2,9:4
2,10:4
2,12:4
2,13:2
2,14:7
2,15:2
2,19:3
2,21:8
2,26:6
3,2:6
3,6:4
3,7:2
3,9:2
3,10:2
3,12:2
3,14:1
3,15:4
3,19:3
3,21:2
3,25:6
4,2:6
4,6:4
4,7:2
4,9:2
4,10:2
4,12:2
4,14:1
4,15:4
4,19:3
4,21:2
4,25:6
5,2:6
5,6:4
5,7:2
5,8:3
5,9:2
5,10:2
5,12:2
5,13:4
5,14:1
5,15:4
5,19:3
5,21:2
5,25:6
6,1:2
6,3:4
6,4:4
6,5:4
6,7:2
6,8:1
6,9:2
6,10:2
6,12:2
6,14:5
6,19:1
6,21:6
6,25:2
6,26:4
6,27:4
7,2:4
7,3:2
7,4:2
7,5:2
7,6:2
7,8:1
7,11:3
7,13:2
7,20:4
7,25:4
7,26:2
7,27:2
8,7:1
8,9:1
8,10:1
8,11:4
8,12:1
8,13:1
8,14:4
8,15:1
8,16:4
8,21:5
8,25:3
8,26:3
8,27:3
9,2:4
9,3:2
9,4:2
9,5:2
9,6:2
9,8:1
9,11:3
9,13:2
9,20:4
9,25:4
9,26:2
9,27:2
10,2:4
10,3:2
10,4:2
10,5:2
10,6:2
10,8:1
10,11:3
10,13:2
10,14:3
10,15:2
10,20:4
10,25:4
10,26:2
10,27:2
11,7:3
11,9:3
11,10:3
11,12:3
11,13:5
11,15:5
11,17:3
11,18:3
11,19:4
11,21:1
11,22:1
11,25:7
11,26:1
11,27:1
12,2:4
12,3:2
12,4:2
12,5:2
12,6:2
12,8:1
12,11:3
12,13:2
12,14:3
12,15:2
12,16:3
12,20:4
12,25:4
12,26:2
12,27:2
13,2:2
13,7:2
13,8:1
13,9:2
13,10:2
13,11:5
13,12:2
13,14:5
13,16:5
13,17:2
13,18:2
13,19:1
13,21:6
13,22:6
13,25:2
13,26:4
13,27:4
14,1:3
14,2:7
14,3:1
14,4:1
14,5:1
14,6:5
14,8:4
14,12:3
14,13:5
14,15:5
14,17:3
14,19:4
14,20:1
14,21:1
14,25:7
14,26:1
14,27:1
15,1:2
15,2:2
15,3:4
15,4:4
15,5:4
15,8:1
15,11:5
15,14:5
15,16:5
15,17:2
15,18:2
15,19:1
15,20:6
15,25:2
15,26:4
15,27:4
16,12:3
16,13:5
16,15:5
16,17:3
16,18:3
16,19:4
16,20:1
16,21:1
16,25:7
16,26:1
16,27:1
17,14:3
17,15:2
17,16:3
17,19:1
17,20:4
17,21:4
17,22:4
17,25:4
17,26:2
17,27:2
18,11:3
18,13:2
18,15:2
18,19:1
18,20:4
18,21:4
18,22:4
18,25:4
18,26:2
18,27:2
19,1:1
19,2:3
19,3:3
19,4:3
19,5:3
19,6:1
19,11:4
19,13:1
19,14:4
19,16:4
19,17:1
19,18:1
19,20:5
19,21:5
19,25:3
19,26:3
19,27:3
20,7:4
20,9:4
20,10:4
20,12:4
20,14:1
20,15:6
20,16:1
20,18:4
20,19:5
20,23:6
20,25:8
20,26:2
20,27:2
21,1:4
21,2:8
21,3:2
21,4:2
21,5:2
21,6:6
21,8:5
21,11:1
21,13:6
21,14:1
21,16:1
21,17:4
21,18:4
21,25:8
21,26:2
21,27:2
22,11:1
22,13:6
22,17:4
22,23:6
22,25:8
22,26:2
22,27:2
23,24:4
23,25:2
23,26:4
23,27:4
23,28:7
24,25:6
24,28:3
24,29:3
25,3:6
25,4:6
25,5:6
25,6:2
25,8:3
25,9:4
25,10:4
25,11:7
25,12:4
25,13:2
25,14:7
25,15:2
25,16:7
25,17:4
25,18:4
25,19:3
25,20:8
25,21:8
25,22:8
25,23:2
25,24:6
25,26:6
25,27:6
25,28:9
25,29:9
26,1:2
26,6:4
26,7:2
26,8:3
26,9:2
26,10:2
26,11:1
26,12:2
26,13:4
26,14:1
26,15:4
26,16:1
26,17:2
26,18:2
26,19:3
26,20:2
26,21:2
26,22:2
26,23:4
26,25:6
26,28:3
27,1:2
27,6:4
27,7:2
27,8:3
27,9:2
27,10:2
27,11:1
27,12:2
27,13:4
27,14:1
27,15:4
27,16:1
27,17:2
27,18:2
27,19:3
27,20:2
27,21:2
27,22:2
27,23:4
27,25:6
27,28:3
27,29:3
28,24:3
28,25:9
28,26:3
28,27:3

<setup times backward>
1,14:3
1,21:4
1,26:2
1,27:2
2,1:4
2,3:6
2,4:6
2,5:6
2,7:4
2,9:4
2,10:4
2,12:4
2,13:2
2,14:7
2,15:2
2,19:3
2,21:8
3,14:1
3,21:2
4,14:1
4,21:2
5,14:1
5,21:2
6,1:2
6,3:4
6,4:4
6,5:4
6,7:2
6,9:2
6,10:2
6,12:2
6,14:5
6,19:1
6,21:6
6,26:4
6,27:4
7,3:2
7,4:2
7,5:2
7,11:3
7,20:4
7,26:2
7,27:2
8,1:1
8,3:3
8,4:3
8,5:3
8,7:1
8,9:1
8,10:1
8,12:1
8,14:4
8,21:5
8,26:3
8,27:3
9,3:2
9,4:2
9,5:2
9,11:3
9,20:4
9,26:2
9,27:2
10,3:2
10,4:2
10,5:2
10,11:3
10,20:4
10,26:2
10,27:2
11,21:1
11,22:1
12,3:2
12,4:2
12,5:2
12,11:3
12,14:3
12,16:3
12,20:4
12,26:2
12,27:2
13,1:2
13,3:4
13,4:4
13,5:4
13,7:2
13,8:1
13,9:2
13,10:2
13,11:5
13,12:2
13,14:5
13,16:5
13,18:2
13,19:1
13,21:6
13,22:6
13,26:4
13,27:4
14,20:1
14,21:1
15,1:2
15,3:4
15,4:4
15,5:4
15,7:2
15,8:1
15,9:2
15,10:2
15,11:5
15,12:2
15,14:5
15,16:5
15,17:2
15,18:2
15,20:6
15,26:4
15,27:4
16,20:1
16,21:1
17,3:2
17,4:2
17,5:2
17,11:3
17,14:3
17,16:3
17,21:4
17,22:4
17,26:2
17,27:2
18,3:2
18,4:2
18,5:2
18,11:3
18,14:3
18,16:3
18,20:4
18,21:4
18,26:2
18,27:2
19,1:1
19,3:3
19,4:3
19,5:3
19,7:1
19,9:1
19,10:1
19,11:4
19,12:1
19,14:4
19,16:4
19,17:1
19,18:1
19,20:5
19,26:3
19,27:3
23,1:2
23,3:4
23,4:4
23,5:4
23,7:2
23,8:1
23,9:2
23,10:2
23,11:5
23,12:2
23,14:5
23,16:5
23,17:2
23,18:2
23,19:1
23,20:6
23,21:6
23,22:6
23,26:4
23,27:4
24,11:1
24,14:1
24,16:1
24,20:2
24,21:2
24,22:2
24,28:3
25,1:4
25,3:6
25,4:6
25,5:6
25,6:2
25,7:4
25,8:3
25,9:4
25,10:4
25,11:7
25,12:4
25,13:2
25,14:7
25,15:2
25,16:7
25,17:4
25,18:4
25,19:3
25,20:8
25,21:8
25,22:8
25,23:2
25,24:6
25,26:6
25,27:6
25,28:9
26,11:1
26,14:1
26,16:1
26,20:2
26,21:2
26,22:2
26,28:3
27,11:1
27,14:1
27,16:1
27,20:2
27,21:2
27,22:2
27,28:3

<end>

<optimal SALBP-1 value>
11


<rand seed>
467321153

<Lower Bounds>
Lm1=10
Lms1=10
Lm2=5
Lm3=7
Lm4=11
Best=11

<Optimal Stations (Iterations: 10)>
13
